%mem=64000Mb
%NProc=32
%oldchk=compound4.pbe0-d3bj.QTAIM.chk
%chk=compound4.pbe0-d3bj-cosmo.optg-freq.chk
#p PBE1PBE/GEN GFInput GFOldPrint 5D 7F IOP(4/69=2, 6/7=3)
   EmpiricalDispersion=GD3BJ
   Scf=(NoVarAcc,MaxCycle=200,conver=8) Integral=(Grid=UltraFine)
   Pseudo=Read
   Guess=CheckPoint
   Symm=Loose 
   Opt Freq=(Raman, InternalModes)
   SCRF=(COSMO, Solvent=Water, Read)

compound4.pbe0-d3bj-cosmo.optg-freq.chk

 2  1
U 0.230280 4.365420 6.364366
O 1.540694 3.231437 6.708555
O -1.084544 5.529063 6.177689
N 1.672557 4.356498 4.241762
C 1.813553 3.191330 3.583532
H 1.463872 2.400864 3.978421
C 2.442768 3.093280 2.362933
H 2.522458 2.256222 1.919683
C 2.961192 4.256254 1.795519
H 3.358463 4.231162 0.932769
C 2.892770 5.445262 2.495219
H 3.276994 6.238788 2.139955
C 2.249177 5.457828 3.735876
N 1.708326 6.437820 5.859711
C 2.215355 6.637755 4.622253
C 2.762143 7.857551 4.230441
H 3.074663 7.983466 3.342218
C 2.841367 8.878845 5.153612
H 3.214778 9.717491 4.911190
C 2.368467 8.667736 6.438938
H 2.441110 9.349795 7.096676
C 1.785863 7.442813 6.753348
N 0.752433 5.929517 8.328596
C 1.250055 7.171536 8.103648
C 1.265742 8.144994 9.102499
H 1.641601 9.000699 8.932681
C 0.727312 7.851158 10.342418
H 0.702334 8.514370 11.023413
C 0.226343 6.588903 10.581763
H -0.142496 6.366680 11.428269
C 0.272983 5.649296 9.559162
N -0.486509 3.547419 8.687552
C -0.182754 4.267612 9.787432
C -0.246443 3.740384 11.074112
H -0.059375 4.285195 11.829434
C -0.587996 2.408792 11.235317
H -0.616164 2.018848 12.101389
C -0.887927 1.659059 10.115132
H -1.117511 0.741676 10.203856
C -0.851387 2.252016 8.856263
N -1.142076 2.170287 6.473394
C -1.227114 1.502431 7.642063
C -1.677678 0.187086 7.713190
H -1.741014 -0.255124 8.552436
C -2.032626 -0.468928 6.546613
H -2.326432 -1.372811 6.572455
C -1.950477 0.210257 5.341396
H -2.184882 -0.221804 4.528484
C -1.522764 1.535400 5.339673
N -1.044522 3.589773 4.248530
C -1.512601 2.339476 4.104431
C -1.989095 1.869928 2.878418
H -2.306219 0.978259 2.790924
C -1.987641 2.731469 1.790474
H -2.273062 2.425692 0.937692
C -1.567134 4.040578 1.959185
H -1.594561 4.655312 1.235489
C -1.108124 4.435336 3.203779
H -0.826657 5.333942 3.324990

!input file for basis set of U
@/home/pcmt/basis.gaussian/U-ECP60MWB_SEG/N
****
O  0
Def2TZVP
****
N  0
Def2TZVP
****
C  0
Def2TZVP
****
H  0
Def2TZVP
****

!input file for ECP for U
@/home/pcmt/basis.gaussian/U-ECP60MWB/N

Radii=Klamt

