%mem=16000Mb
%NProc=8
%chk=terpy.pbe0-d3bj-cosmo.optg-freq.chk
#p PBE1PBE/GEN GFInput GFOldPrint 5D 7F IOP(4/69=2, 6/7=3)
   EmpiricalDispersion=GD3BJ
   Scf=(NoVarAcc,MaxCycle=200,conver=8) Integral=(Grid=UltraFine)
   Guess=Harris
   Symm=Loose 
   Opt Freq=(Raman, InternalModes)
   SCRF=(COSMO, Solvent=Water, Read)

terpy.pbe0-d3bj-cosmo.optg-freq.chk

 0  1
 N     0.000000     0.000000     0.000000
 C     0.000000     0.000000     1.400000
 C     1.212436     0.000000     2.100000
 C     2.424871     0.000000     1.400000
 C     2.424871     0.000000     0.000000
 C     1.212436     0.000000    -0.700000
 H    -0.943102     0.000000     1.944500
 H     1.212436     0.000000     3.189000
 H     3.367973     0.000000     1.944500
 H     3.367973     0.000000    -0.544500
 C     1.212436     0.000000    -2.200000
 C     0.000000     0.000000    -2.900000
 C     0.000000     0.000000    -4.300000
 C     1.212436     0.000000    -5.000000
 C     2.424871     0.000000    -4.300000
 N     2.424871     0.000000    -2.900000
 H    -0.943102     0.000000    -2.355500
 H    -0.943102     0.000000    -4.844500
 H     1.212436     0.000000    -6.089000
 C     3.723909     0.000000    -5.050000
 C     4.936345     0.000000    -4.350000
 C     6.148780     0.000000    -5.050000
 C     6.148780     0.000000    -6.450000
 C     4.936345     0.000000    -7.150000
 N     3.723909     0.000000    -6.450000
 H     4.936345     0.000000    -3.261000
 H     7.091882     0.000000    -4.505500
 H     7.091882     0.000000    -6.994500
 H     4.936345     0.000000    -8.239000

N  0
Def2TZVP
****
C  0
Def2TZVP
****
H  0
Def2TZVP
****

Radii=Klamt

