%mem=64000Mb
%NProc=16
%oldchk=compound2.pbe0-d3bj-cosmo.freq.chk
%chk=compound2.pbe0-d3bj-cosmo.NLMOs.chk
#p PBE1PBE/GEN GFInput GFOldPrint 5D 7F IOP(4/69=2, 6/7=3)
   EmpiricalDispersion=GD3BJ
   Scf=(NoVarAcc,MaxCycle=200,conver=7) Integral=(Grid=UltraFine)
   Pseudo=Read
   Guess=CheckPoint
   Symm=Loose 
   Pop=(NBO7Read, SaveNLMOs)
   SCRF=(COSMO, Solvent=Water, Read)

compound2.pbe0-d3bj.NLMOs.chk

 2  1
U 1.460540 14.145781 6.213262
U 1.209254 9.944755 6.482838
O 3.202383 14.073872 6.049781
O -0.299202 14.344966 6.274025
O 2.563848 9.809898 5.292654
O -0.151926 9.945445 7.648428
O 1.193579 12.082027 6.286081
N 1.886305 16.483845 7.197527
C 2.395013 16.603310 8.427255
H 2.529437 15.810707 8.931203
C 2.747789 17.837014 9.027652
H 3.088923 17.873772 9.914985
C 2.585295 18.948955 8.299460
H 2.806691 19.794398 8.668379
C 2.084364 18.866249 6.978105
H 2.006636 19.645067 6.440400
C 1.700359 17.616463 6.481391
N 1.205019 16.180588 4.653678
C 1.188567 17.469430 5.111812
C 0.710109 18.517044 4.318516
H 0.702590 19.394651 4.680201
C 0.260804 18.335549 3.093610
H -0.038370 19.073015 2.575196
C 0.245398 17.042113 2.570373
H -0.091935 16.862916 1.699918
C 0.751103 16.010581 3.395014
N 1.439379 13.639664 3.742232
C 0.959788 14.565516 2.874188
C 0.630202 14.220906 1.560067
H 0.230796 14.850394 0.971726
C 0.919805 12.915983 1.142924
H 0.687757 12.633403 0.265236
C 1.553743 12.019997 2.042313
H 1.810873 11.140093 1.796368
C 1.728354 12.472585 3.156303
H 2.173233 11.863774 3.737409
N -0.512530 10.329110 4.629565
C -1.170571 11.493892 4.542761
H -1.055376 12.121082 5.246841
C -1.959578 11.829313 3.532455
H -2.418368 12.663269 3.546922
C -2.125989 10.995356 2.498036
H -2.657885 11.243476 1.752966
C -1.523462 9.812195 2.534205
H -1.631378 9.212574 1.806013
C -0.691943 9.419340 3.660250
N 0.426987 7.864000 5.099755
C -0.108761 8.086848 3.836270
C -0.083743 7.085182 2.924824
H -0.431748 7.259784 2.056781
C 0.395490 5.869857 3.180415
H 0.440355 5.215098 2.493214
C 0.826977 5.580385 4.439078
H 1.069490 4.686696 4.656089
C 0.923535 6.579754 5.415627
N 1.683336 7.523985 7.474819
C 1.405215 6.460289 6.787618
C 1.653006 5.109418 7.303621
H 1.540548 4.335194 6.761094
C 2.026114 5.031306 8.545406
H 2.140588 4.176673 8.940848
C 2.273005 6.205277 9.336290
H 2.570295 6.154735 10.238091
C 2.058080 7.416007 8.697313
H 2.197604 8.213205 9.194027
O 1.523142 13.896973 8.569518
S 0.415298 13.607500 9.562946
C 0.684324 14.792959 10.877067
H 1.497142 14.556326 11.368958
H -0.082203 14.781472 11.487109
H 0.781364 15.688945 10.491270
C 0.932752 12.162436 10.416522
H 0.917441 11.397401 9.804069
H 0.328354 11.992428 11.168826
H 1.844646 12.291090 10.754094
O 2.808536 10.313029 8.188543
S 4.295833 10.336003 8.133085
C 4.749863 12.040673 7.901607
H 5.286372 12.571373 8.451368
H 4.396395 12.490964 7.115545
H 5.619612 11.723632 7.361491
C 4.801333 10.131534 9.849882
H 4.437883 10.850620 10.599775
H 5.617712 10.508308 9.806480
H 4.366467 9.483667 10.093417

!input file for basis set of U
@/home/pcmt/basis.gaussian/U-ECP60MWB_SEG/N
****
S  0
Def2TZVP
****
O  0
Def2TZVP
****
N  0
Def2TZVP
****
C  0
Def2TZVP
****
H  0
Def2TZVP
****

!input file for ECP for U
@/home/pcmt/basis.gaussian/U-ECP60MWB/N

Radii=Klamt

$NBO
AONLMO
BNDIDX
$END

--Link1--
%mem=64000Mb
%NProc=16
%chk=compound2.pbe0-d3bj-cosmo.NLMOs.chk
#p PBE1PBE/GEN GFInput GFOldPrint 5D 7F IOP(4/69=2, 6/7=3)
   EmpiricalDispersion=GD3BJ
   Scf=(NoVarAcc,MaxCycle=200,conver=7) Integral=(Grid=UltraFine)
   Pseudo=Read
   Geom=CheckPoint
   Guess=(CheckPoint,Only)
   Symm=Loose 
   SCRF=(COSMO, Solvent=Water, Read)
   Output=WFX

compound2.pbe0-d3bj.NLMOs.chk

 2  1

!input file for basis set of U
@/home/pcmt/basis.gaussian/U-ECP60MWB_SEG/N
****
S  0
Def2TZVP
****
O  0
Def2TZVP
****
N  0
Def2TZVP
****
C  0
Def2TZVP
****
H  0
Def2TZVP
****

!input file for ECP for U
@/home/pcmt/basis.gaussian/U-ECP60MWB/N

Radii=Klamt

compound2.pbe0-d3bj-cosmo.NLMOs.wfx
